************************************************************************
file with basedata            : cn144_.bas
initial value random generator: 326146689
************************************************************************
projects                      :  1
jobs (incl. supersource/sink ):  18
horizon                       :  131
RESOURCES
  - renewable                 :  2   R
  - nonrenewable              :  1   N
  - doubly constrained        :  0   D
************************************************************************
PROJECT INFORMATION:
pronr.  #jobs rel.date duedate tardcost  MPM-Time
    1     16      0       25        0       25
************************************************************************
PRECEDENCE RELATIONS:
jobnr.    #modes  #successors   successors
   1        1          3           2   3   4
   2        3          1           5
   3        3          3           7  12  16
   4        3          3          10  13  14
   5        3          3           6   7   9
   6        3          2           8  11
   7        3          1          10
   8        3          3          13  14  17
   9        3          3          11  13  17
  10        3          2          15  17
  11        3          2          12  16
  12        3          1          14
  13        3          2          15  16
  14        3          1          15
  15        3          1          18
  16        3          1          18
  17        3          1          18
  18        1          0        
************************************************************************
REQUESTS/DURATIONS:
jobnr. mode duration  R 1  R 2  N 1
------------------------------------------------------------------------
  1      1     0       0    0    0
  2      1     3       0    8    9
         2     7       0    2    7
         3     7       5    0    6
  3      1     4       5    0    9
         2     4       0    3    7
         3    10       8    0    5
  4      1     3       0    7    3
         2     5       0    5    3
         3    10       6    0    3
  5      1     3       0    7    8
         2     3       7    0    8
         3     5       2    0    7
  6      1     1       7    0    4
         2     2       0    6    4
         3     7       0    6    3
  7      1     5       4    0    3
         2     8       0    9    3
         3     9       0    8    3
  8      1     1       0    9    7
         2    10       5    0    4
         3    10       3    0    6
  9      1     1       0    8    6
         2     3       0    6    5
         3     6       3    0    5
 10      1     6       7    0    5
         2     7       0    5    3
         3     9       0    4    2
 11      1     1       4    0    8
         2     3       3    0    6
         3    10       1    0    4
 12      1     8       0   10   10
         2     8       9    0   10
         3    10       0    9   10
 13      1     3       0    7    2
         2     4       0    5    2
         3     8       0    2    2
 14      1     2       0    1    8
         2     7       5    0    5
         3     8       0    1    1
 15      1     7       5    0    8
         2     8       4    0    5
         3    10       1    0    1
 16      1     1       4    0    6
         2     3       0    8    4
         3     5       0    6    3
 17      1     1       0   10   10
         2     3       0   10    9
         3     7       5    0    8
 18      1     0       0    0    0
************************************************************************
RESOURCEAVAILABILITIES:
  R 1  R 2  N 1
   21   27   87
************************************************************************
